NAME          BLANK   
ROWS
 N  OBJROW
 L  R0000000
COLUMNS
    C0000000  OBJROW     -937.         R0000000  822.        
    C0000001  OBJROW     -451.         R0000000  998.        
    C0000002  OBJROW     -854.         R0000000  357.        
    C0000003  OBJROW     -541.         R0000000  59.         
    C0000004  OBJROW     -448.         R0000000  200.        
    C0000005  OBJROW     -737.         R0000000  945.        
    C0000006  OBJROW     -657.         R0000000  500.        
    C0000007  OBJROW     -274.         R0000000  604.        
    C0000008  OBJROW     -107.         R0000000  550.        
    C0000009  OBJROW     -543.         R0000000  51.         
    C0000010  OBJROW     -610.         R0000000  70.         
    C0000011  OBJROW     -374.         R0000000  505.        
    C0000012  OBJROW     -674.         R0000000  921.        
    C0000013  OBJROW     -667.         R0000000  79.         
RHS
    RHS       R0000000  13735.      
BOUNDS
 BV BOUND     C0000000  1.          
 BV BOUND     C0000001  1.          
 BV BOUND     C0000002  1.          
 BV BOUND     C0000003  1.          
 BV BOUND     C0000004  1.          
 BV BOUND     C0000005  1.          
 BV BOUND     C0000006  1.          
 BV BOUND     C0000007  1.          
 BV BOUND     C0000008  1.          
 BV BOUND     C0000009  1.          
 BV BOUND     C0000010  1.          
 BV BOUND     C0000011  1.          
 BV BOUND     C0000012  1.          
 BV BOUND     C0000013  1.          
ENDATA
